(set-info :smt-lib-version 2.6)
(set-logic QF_S)
(set-info :source |
Generated by: Murphy Berzish, Mitja Kulczynski, Federico Mora, Florin Manea, Joel Day, Dirk Nowotka, Vijay Ganesh, Zhengyang Lu
Generated on: 2020-10-01
Description: Translated from a collection of real-world regex queries, AutomataArk, collected by Loris D’Antoni and Fang Wang: https://github.com/lorisdanto/automatark
Application: Evaluate solvers on real-world regex queries
Target solver: Z3str3RE, CVC4, OSTRICH, Z3seq, Z3str3, Z3-Trau
Publications: Berzish, M., Kulczynski, M., Mora, F., Manea, F., Day, J. D., Nowotka, D., & Ganesh, V. (2021, July). An SMT solver for regular expressions and linear arithmetic over string length. In CAV 2021.
|)
(set-info :license "https://creativecommons.org/licenses/by/4.0/")
(set-info :category "industrial")
(set-info :status unsat)

(declare-const X String)
(assert (str.in_re X (re.++ (str.to_re "/#") ((_ re.loop 2 2) (re.range "0" "9")) (str.to_re ":") ((_ re.loop 2 2) (re.range "0" "9")) (str.to_re ":") (re.range "0" "9") (re.range "0" "9") (str.to_re "/R\u{a}"))))
(assert (str.in_re X (re.++ (re.union (re.opt (re.union (str.to_re "0") (str.to_re "(0)"))) (re.++ (re.opt (re.union (str.to_re "00") (str.to_re "(00)"))) (re.union (re.opt (re.union (str.to_re " ") (str.to_re "\u{9}") (str.to_re "\u{a}") (str.to_re "\u{c}") (str.to_re "\u{d}"))) (re.opt (str.to_re "-"))) (re.union (str.to_re "27") (str.to_re "(27)"))) (str.to_re "+27") (str.to_re "(+27)") (re.++ (str.to_re "(00") (re.union (re.opt (re.union (str.to_re " ") (str.to_re "\u{9}") (str.to_re "\u{a}") (str.to_re "\u{c}") (str.to_re "\u{d}"))) (re.opt (str.to_re "-"))) (str.to_re "27)"))) (re.opt (re.union (str.to_re " ") (str.to_re "-"))) (re.opt (re.union (str.to_re " ") (str.to_re "-"))) (re.opt (str.to_re "(")) (re.union (re.++ (str.to_re "1") (re.range "0" "9")) (re.++ (str.to_re "2") (re.union (re.range "1" "4") (str.to_re ",") (re.range "7" "9"))) (re.++ (str.to_re "3") (re.union (re.range "1" "6") (str.to_re ",") (str.to_re "9"))) (re.++ (str.to_re "4") (re.range "0" "9")) (re.++ (str.to_re "5") (re.union (str.to_re "1") (str.to_re ",") (str.to_re "3") (re.range "6" "9"))) (re.++ (str.to_re "7") (re.union (re.range "1" "4") (str.to_re ",") (str.to_re "6") (str.to_re "8") (str.to_re "9"))) (re.++ (str.to_re "8") (re.range "0" "9"))) (re.opt (str.to_re ")")) (re.union (re.opt (re.union (str.to_re " ") (str.to_re "\u{9}") (str.to_re "\u{a}") (str.to_re "\u{c}") (str.to_re "\u{d}"))) (re.opt (str.to_re "-"))) (re.union (re.++ ((_ re.loop 3 3) (re.range "0" "9")) (re.union (re.opt (re.union (str.to_re " ") (str.to_re "\u{9}") (str.to_re "\u{a}") (str.to_re "\u{c}") (str.to_re "\u{d}"))) (re.opt (str.to_re "-"))) ((_ re.loop 4 4) (re.range "0" "9"))) (re.++ ((_ re.loop 4 4) (re.range "0" "9")) (re.union (re.opt (re.union (str.to_re " ") (str.to_re "\u{9}") (str.to_re "\u{a}") (str.to_re "\u{c}") (str.to_re "\u{d}"))) (re.opt (str.to_re "-"))) ((_ re.loop 3 3) (re.range "0" "9"))) (re.++ (re.range "0" "2") (re.union (re.opt (re.union (str.to_re " ") (str.to_re "\u{9}") (str.to_re "\u{a}") (str.to_re "\u{c}") (str.to_re "\u{d}"))) (re.opt (str.to_re "-"))) ((_ re.loop 3 3) (re.range "0" "9")) (re.union (re.opt (re.union (str.to_re " ") (str.to_re "\u{9}") (str.to_re "\u{a}") (str.to_re "\u{c}") (str.to_re "\u{d}"))) (re.opt (str.to_re "-"))) ((_ re.loop 3 3) (re.range "0" "9")))) (str.to_re "\u{a}") (re.opt (str.to_re "(")) (re.opt (str.to_re "0")) (re.opt (str.to_re ")")))))
(assert (not (str.in_re X (re.++ (str.to_re "v.") (re.+ (re.union (str.to_re " ") (str.to_re "\u{9}") (str.to_re "\u{a}") (str.to_re "\u{c}") (str.to_re "\u{d}"))) (str.to_re "ocllceclbhs/gth") (re.+ (re.union (re.range "0" "9") (re.range "A" "Z") (re.range "a" "z") (str.to_re "_"))) (str.to_re "http://www.searchinweb.com/search.php?said=bar\u{a}")))))
(assert (str.in_re X (re.++ (re.* (re.union (str.to_re "<") (str.to_re "^") (str.to_re ">"))) (str.to_re "\u{a}"))))
(assert (not (str.in_re X (re.++ (str.to_re "/filename=") (re.* (re.comp (str.to_re "\u{a}"))) (str.to_re ".docx/i\u{a}")))))
(check-sat)

(exit)
